(set-logic ALL)
(set-option :produce-models true)
(declare-sort BoundSet 0)
(declare-sort UnboundSet 0)
(set-option :finite-model-find true)
(declare-fun IsYoung (BoundSet) Bool)
(declare-fun IsOnPipe (BoundSet) Bool)
(declare-fun IsAboveRiver (BoundSet) Bool)
(declare-fun IsBalancing (BoundSet) Bool)
(assert (not (=> (exists ((c BoundSet)) (exists ((a BoundSet)) (exists ((d BoundSet)) (and (IsYoung a) (and (IsOnPipe c) (IsAboveRiver d)))))) (exists ((e BoundSet)) (not (IsBalancing e))))))
(check-sat)
(get-model)